1600 3200
1 2 3
1 41 4
2 3 3
2 42 4
3 4 2
3 43 4
4 5 3
4 44 2
5 6 5
5 45 5
6 7 4
6 46 4
7 8 4
7 47 3
8 9 2
8 48 5
9 10 1
9 49 1
10 11 5
10 50 5
11 12 1
11 51 5
12 13 1
12 52 2
13 14 1
13 53 2
14 15 5
14 54 3
15 16 4
15 55 2
16 17 1
16 56 1
17 18 1
17 57 1
18 19 2
18 58 4
19 20 2
19 59 4
20 21 4
20 60 3
21 22 5
21 61 5
22 23 5
22 62 3
23 24 2
23 63 3
24 25 1
24 64 4
25 26 2
25 65 3
26 27 2
26 66 1
27 28 1
27 67 4
28 29 1
28 68 4
29 30 3
29 69 3
30 31 3
30 70 4
31 32 1
31 71 4
32 33 3
32 72 2
33 34 1
33 73 1
34 35 5
34 74 1
35 36 5
35 75 2
36 37 2
36 76 5
37 38 5
37 77 2
38 39 3
38 78 3
39 40 1
39 79 5
40 80 5
41 42 1
41 81 4
42 43 5
42 82 2
43 44 1
43 83 1
44 45 4
44 84 4
45 46 5
45 85 4
46 47 5
46 86 3
47 48 3
47 87 2
48 49 4
48 88 1
49 50 1
49 89 5
50 51 4
50 90 4
51 52 4
51 91 5
52 53 4
52 92 2
53 54 2
53 93 3
54 55 3
54 94 3
55 56 1
55 95 4
56 57 1
56 96 2
57 58 5
57 97 5
58 59 3
58 98 3
59 60 1
59 99 4
60 61 1
60 100 5
61 62 5
61 101 1
62 63 4
62 102 5
63 64 5
63 103 4
64 65 2
64 104 2
65 66 3
65 105 3
66 67 3
66 106 4
67 68 3
67 107 4
68 69 5
68 108 1
69 70 5
69 109 2
70 71 4
70 110 3
71 72 2
71 111 5
72 73 3
72 112 2
73 74 5
73 113 2
74 75 1
74 114 5
75 76 5
75 115 5
76 77 5
76 116 3
77 78 2
77 117 2
78 79 3
78 118 5
79 80 5
79 119 2
80 120 3
81 82 3
81 121 1
82 83 3
82 122 2
83 84 5
83 123 3
84 85 5
84 124 4
85 86 5
85 125 1
86 87 3
86 126 3
87 88 4
87 127 4
88 89 2
88 128 1
89 90 5
89 129 1
90 91 5
90 130 4
91 92 1
91 131 2
92 93 5
92 132 3
93 94 3
93 133 4
94 95 1
94 134 1
95 96 2
95 135 4
96 97 1
96 136 2
97 98 4
97 137 2
98 99 4
98 138 2
99 100 4
99 139 5
100 101 2
100 140 5
101 102 4
101 141 4
102 103 4
102 142 1
103 104 2
103 143 5
104 105 5
104 144 1
105 106 4
105 145 3
106 107 5
106 146 2
107 108 1
107 147 1
108 109 5
108 148 4
109 110 5
109 149 3
110 111 1
110 150 4
111 112 3
111 151 5
112 113 3
112 152 1
113 114 2
113 153 1
114 115 3
114 154 4
115 116 1
115 155 3
116 117 1
116 156 2
117 118 3
117 157 4
118 119 2
118 158 1
119 120 4
119 159 2
120 160 2
121 122 2
121 161 5
122 123 1
122 162 3
123 124 4
123 163 3
124 125 5
124 164 1
125 126 5
125 165 4
126 127 3
126 166 3
127 128 1
127 167 4
128 129 3
128 168 2
129 130 4
129 169 4
130 131 2
130 170 4
131 132 4
131 171 1
132 133 5
132 172 3
133 134 2
133 173 5
134 135 4
134 174 2
135 136 1
135 175 2
136 137 5
136 176 5
137 138 4
137 177 2
138 139 1
138 178 1
139 140 3
139 179 1
140 141 2
140 180 5
141 142 5
141 181 2
142 143 3
142 182 4
143 144 2
143 183 2
144 145 1
144 184 5
145 146 1
145 185 4
146 147 2
146 186 2
147 148 5
147 187 3
148 149 3
148 188 4
149 150 5
149 189 4
150 151 1
150 190 4
151 152 2
151 191 1
152 153 2
152 192 5
153 154 2
153 193 2
154 155 4
154 194 5
155 156 1
155 195 2
156 157 4
156 196 2
157 158 5
157 197 2
158 159 5
158 198 3
159 160 1
159 199 3
160 200 1
161 162 2
161 201 4
162 163 4
162 202 1
163 164 2
163 203 2
164 165 1
164 204 5
165 166 3
165 205 4
166 167 2
166 206 3
167 168 1
167 207 5
168 169 3
168 208 5
169 170 5
169 209 3
170 171 4
170 210 4
171 172 4
171 211 3
172 173 2
172 212 3
173 174 5
173 213 3
174 175 5
174 214 1
175 176 3
175 215 5
176 177 1
176 216 2
177 178 3
177 217 2
178 179 2
178 218 4
179 180 4
179 219 3
180 181 3
180 220 4
181 182 2
181 221 1
182 183 4
182 222 3
183 184 3
183 223 2
184 185 3
184 224 5
185 186 5
185 225 3
186 187 5
186 226 4
187 188 5
187 227 1
188 189 1
188 228 4
189 190 4
189 229 3
190 191 4
190 230 1
191 192 5
191 231 5
192 193 5
192 232 1
193 194 3
193 233 3
194 195 5
194 234 2
195 196 2
195 235 3
196 197 3
196 236 2
197 198 2
197 237 5
198 199 4
198 238 1
199 200 3
199 239 5
200 240 5
201 202 3
201 241 1
202 203 3
202 242 1
203 204 5
203 243 5
204 205 5
204 244 4
205 206 1
205 245 4
206 207 1
206 246 1
207 208 4
207 247 1
208 209 3
208 248 4
209 210 1
209 249 5
210 211 2
210 250 4
211 212 4
211 251 4
212 213 2
212 252 3
213 214 3
213 253 2
214 215 3
214 254 1
215 216 4
215 255 3
216 217 5
216 256 1
217 218 5
217 257 2
218 219 5
218 258 2
219 220 3
219 259 4
220 221 4
220 260 5
221 222 1
221 261 2
222 223 4
222 262 5
223 224 5
223 263 4
224 225 1
224 264 5
225 226 3
225 265 2
226 227 2
226 266 3
227 228 1
227 267 3
228 229 3
228 268 3
229 230 3
229 269 3
230 231 1
230 270 2
231 232 5
231 271 4
232 233 3
232 272 2
233 234 2
233 273 3
234 235 4
234 274 1
235 236 2
235 275 1
236 237 5
236 276 5
237 238 2
237 277 5
238 239 4
238 278 1
239 240 2
239 279 2
240 280 2
241 242 4
241 281 4
242 243 5
242 282 3
243 244 4
243 283 5
244 245 4
244 284 4
245 246 2
245 285 5
246 247 3
246 286 1
247 248 3
247 287 5
248 249 3
248 288 1
249 250 5
249 289 5
250 251 3
250 290 4
251 252 2
251 291 4
252 253 5
252 292 5
253 254 2
253 293 1
254 255 2
254 294 5
255 256 2
255 295 1
256 257 1
256 296 2
257 258 1
257 297 3
258 259 4
258 298 5
259 260 4
259 299 3
260 261 3
260 300 3
261 262 3
261 301 3
262 263 2
262 302 1
263 264 5
263 303 2
264 265 2
264 304 5
265 266 4
265 305 4
266 267 2
266 306 4
267 268 4
267 307 1
268 269 2
268 308 2
269 270 4
269 309 2
270 271 1
270 310 4
271 272 5
271 311 4
272 273 3
272 312 4
273 274 5
273 313 3
274 275 5
274 314 3
275 276 1
275 315 4
276 277 4
276 316 3
277 278 5
277 317 1
278 279 3
278 318 4
279 280 2
279 319 5
280 320 3
281 282 1
281 321 2
282 283 5
282 322 3
283 284 2
283 323 3
284 285 1
284 324 3
285 286 5
285 325 1
286 287 3
286 326 1
287 288 4
287 327 5
288 289 2
288 328 2
289 290 4
289 329 1
290 291 1
290 330 3
291 292 5
291 331 2
292 293 5
292 332 5
293 294 2
293 333 5
294 295 5
294 334 3
295 296 4
295 335 2
296 297 3
296 336 1
297 298 2
297 337 2
298 299 3
298 338 4
299 300 3
299 339 5
300 301 4
300 340 2
301 302 1
301 341 5
302 303 3
302 342 5
303 304 5
303 343 3
304 305 3
304 344 3
305 306 2
305 345 2
306 307 1
306 346 3
307 308 1
307 347 5
308 309 4
308 348 1
309 310 2
309 349 4
310 311 4
310 350 4
311 312 4
311 351 1
312 313 1
312 352 1
313 314 1
313 353 3
314 315 5
314 354 1
315 316 1
315 355 3
316 317 3
316 356 5
317 318 4
317 357 4
318 319 1
318 358 5
319 320 4
319 359 3
320 360 3
321 322 5
321 361 3
322 323 5
322 362 2
323 324 1
323 363 2
324 325 4
324 364 3
325 326 3
325 365 3
326 327 5
326 366 5
327 328 1
327 367 1
328 329 3
328 368 3
329 330 1
329 369 4
330 331 3
330 370 4
331 332 4
331 371 4
332 333 2
332 372 2
333 334 2
333 373 3
334 335 4
334 374 4
335 336 1
335 375 3
336 337 5
336 376 5
337 338 1
337 377 3
338 339 4
338 378 2
339 340 4
339 379 3
340 341 4
340 380 2
341 342 2
341 381 3
342 343 1
342 382 3
343 344 2
343 383 2
344 345 2
344 384 4
345 346 1
345 385 4
346 347 1
346 386 2
347 348 5
347 387 5
348 349 2
348 388 5
349 350 4
349 389 3
350 351 4
350 390 2
351 352 5
351 391 2
352 353 3
352 392 4
353 354 1
353 393 2
354 355 4
354 394 5
355 356 5
355 395 3
356 357 1
356 396 2
357 358 3
357 397 1
358 359 3
358 398 5
359 360 3
359 399 4
360 400 1
361 362 1
361 401 1
362 363 3
362 402 2
363 364 3
363 403 3
364 365 5
364 404 2
365 366 1
365 405 3
366 367 5
366 406 5
367 368 4
367 407 3
368 369 2
368 408 3
369 370 2
369 409 4
370 371 4
370 410 5
371 372 4
371 411 4
372 373 4
372 412 1
373 374 5
373 413 4
374 375 2
374 414 3
375 376 2
375 415 4
376 377 4
376 416 1
377 378 2
377 417 3
378 379 2
378 418 5
379 380 3
379 419 3
380 381 2
380 420 3
381 382 4
381 421 2
382 383 1
382 422 5
383 384 4
383 423 4
384 385 4
384 424 1
385 386 1
385 425 2
386 387 4
386 426 5
387 388 4
387 427 2
388 389 5
388 428 5
389 390 1
389 429 3
390 391 2
390 430 1
391 392 2
391 431 1
392 393 5
392 432 5
393 394 1
393 433 5
394 395 1
394 434 3
395 396 2
395 435 1
396 397 1
396 436 3
397 398 5
397 437 3
398 399 1
398 438 1
399 400 2
399 439 1
400 440 1
401 402 5
401 441 5
402 403 2
402 442 4
403 404 3
403 443 2
404 405 2
404 444 3
405 406 5
405 445 5
406 407 2
406 446 2
407 408 5
407 447 4
408 409 1
408 448 1
409 410 4
409 449 2
410 411 2
410 450 2
411 412 5
411 451 2
412 413 4
412 452 1
413 414 5
413 453 4
414 415 3
414 454 2
415 416 4
415 455 4
416 417 3
416 456 4
417 418 4
417 457 2
418 419 3
418 458 2
419 420 1
419 459 1
420 421 2
420 460 1
421 422 2
421 461 2
422 423 5
422 462 3
423 424 3
423 463 5
424 425 2
424 464 1
425 426 3
425 465 1
426 427 4
426 466 4
427 428 2
427 467 2
428 429 4
428 468 5
429 430 1
429 469 2
430 431 5
430 470 3
431 432 3
431 471 1
432 433 2
432 472 3
433 434 2
433 473 2
434 435 5
434 474 5
435 436 3
435 475 2
436 437 5
436 476 1
437 438 1
437 477 3
438 439 3
438 478 3
439 440 3
439 479 4
440 480 4
441 442 3
441 481 4
442 443 1
442 482 5
443 444 4
443 483 2
444 445 4
444 484 3
445 446 4
445 485 2
446 447 4
446 486 1
447 448 4
447 487 1
448 449 4
448 488 4
449 450 5
449 489 2
450 451 5
450 490 2
451 452 3
451 491 2
452 453 3
452 492 1
453 454 2
453 493 1
454 455 3
454 494 4
455 456 4
455 495 5
456 457 3
456 496 2
457 458 5
457 497 4
458 459 4
458 498 1
459 460 2
459 499 2
460 461 3
460 500 5
461 462 5
461 501 1
462 463 5
462 502 1
463 464 4
463 503 2
464 465 2
464 504 1
465 466 4
465 505 4
466 467 2
466 506 5
467 468 4
467 507 5
468 469 4
468 508 3
469 470 3
469 509 3
470 471 5
470 510 1
471 472 2
471 511 2
472 473 2
472 512 2
473 474 1
473 513 3
474 475 5
474 514 4
475 476 3
475 515 2
476 477 1
476 516 4
477 478 5
477 517 3
478 479 1
478 518 1
479 480 5
479 519 5
480 520 4
481 482 5
481 521 4
482 483 1
482 522 4
483 484 3
483 523 4
484 485 3
484 524 1
485 486 4
485 525 5
486 487 1
486 526 3
487 488 5
487 527 4
488 489 5
488 528 3
489 490 3
489 529 3
490 491 2
490 530 4
491 492 1
491 531 2
492 493 1
492 532 4
493 494 1
493 533 2
494 495 3
494 534 3
495 496 2
495 535 2
496 497 2
496 536 1
497 498 1
497 537 5
498 499 4
498 538 3
499 500 2
499 539 4
500 501 1
500 540 4
501 502 1
501 541 1
502 503 3
502 542 5
503 504 3
503 543 3
504 505 3
504 544 1
505 506 4
505 545 1
506 507 2
506 546 5
507 508 1
507 547 4
508 509 4
508 548 4
509 510 3
509 549 4
510 511 5
510 550 4
511 512 1
511 551 4
512 513 2
512 552 3
513 514 4
513 553 3
514 515 1
514 554 5
515 516 5
515 555 5
516 517 1
516 556 5
517 518 1
517 557 4
518 519 4
518 558 2
519 520 2
519 559 1
520 560 3
521 522 5
521 561 1
522 523 5
522 562 3
523 524 3
523 563 3
524 525 1
524 564 5
525 526 1
525 565 1
526 527 4
526 566 2
527 528 3
527 567 5
528 529 3
528 568 1
529 530 2
529 569 2
530 531 4
530 570 4
531 532 1
531 571 2
532 533 2
532 572 5
533 534 5
533 573 3
534 535 5
534 574 3
535 536 2
535 575 5
536 537 1
536 576 4
537 538 4
537 577 5
538 539 3
538 578 2
539 540 3
539 579 5
540 541 2
540 580 1
541 542 4
541 581 1
542 543 5
542 582 2
543 544 5
543 583 2
544 545 4
544 584 1
545 546 3
545 585 5
546 547 4
546 586 4
547 548 2
547 587 5
548 549 5
548 588 3
549 550 2
549 589 4
550 551 5
550 590 2
551 552 1
551 591 5
552 553 3
552 592 1
553 554 1
553 593 1
554 555 2
554 594 3
555 556 4
555 595 4
556 557 3
556 596 1
557 558 3
557 597 3
558 559 4
558 598 1
559 560 5
559 599 4
560 600 4
561 562 2
561 601 1
562 563 2
562 602 5
563 564 5
563 603 5
564 565 2
564 604 5
565 566 3
565 605 4
566 567 5
566 606 4
567 568 4
567 607 5
568 569 5
568 608 3
569 570 3
569 609 3
570 571 3
570 610 4
571 572 2
571 611 1
572 573 2
572 612 2
573 574 5
573 613 5
574 575 1
574 614 3
575 576 4
575 615 5
576 577 3
576 616 3
577 578 3
577 617 2
578 579 4
578 618 2
579 580 3
579 619 5
580 581 2
580 620 1
581 582 4
581 621 5
582 583 4
582 622 4
583 584 1
583 623 2
584 585 4
584 624 4
585 586 4
585 625 5
586 587 5
586 626 5
587 588 4
587 627 1
588 589 1
588 628 3
589 590 4
589 629 1
590 591 4
590 630 4
591 592 2
591 631 3
592 593 5
592 632 3
593 594 5
593 633 1
594 595 5
594 634 4
595 596 2
595 635 2
596 597 4
596 636 2
597 598 2
597 637 1
598 599 5
598 638 2
599 600 5
599 639 4
600 640 1
601 602 1
601 641 2
602 603 3
602 642 4
603 604 2
603 643 1
604 605 1
604 644 1
605 606 2
605 645 4
606 607 5
606 646 1
607 608 5
607 647 4
608 609 1
608 648 4
609 610 2
609 649 5
610 611 3
610 650 5
611 612 1
611 651 5
612 613 4
612 652 3
613 614 3
613 653 5
614 615 1
614 654 1
615 616 2
615 655 1
616 617 1
616 656 5
617 618 4
617 657 2
618 619 2
618 658 2
619 620 5
619 659 3
620 621 3
620 660 3
621 622 3
621 661 5
622 623 4
622 662 3
623 624 4
623 663 1
624 625 5
624 664 4
625 626 4
625 665 3
626 627 2
626 666 3
627 628 4
627 667 1
628 629 5
628 668 4
629 630 4
629 669 1
630 631 2
630 670 5
631 632 2
631 671 2
632 633 2
632 672 2
633 634 5
633 673 1
634 635 5
634 674 3
635 636 3
635 675 5
636 637 5
636 676 2
637 638 1
637 677 5
638 639 2
638 678 5
639 640 4
639 679 1
640 680 4
641 642 3
641 681 4
642 643 5
642 682 4
643 644 3
643 683 3
644 645 4
644 684 2
645 646 5
645 685 3
646 647 2
646 686 1
647 648 4
647 687 1
648 649 3
648 688 2
649 650 5
649 689 3
650 651 2
650 690 3
651 652 2
651 691 1
652 653 3
652 692 1
653 654 2
653 693 4
654 655 3
654 694 1
655 656 1
655 695 4
656 657 4
656 696 3
657 658 3
657 697 5
658 659 4
658 698 2
659 660 5
659 699 1
660 661 2
660 700 3
661 662 1
661 701 5
662 663 4
662 702 5
663 664 5
663 703 3
664 665 1
664 704 1
665 666 1
665 705 2
666 667 3
666 706 3
667 668 1
667 707 1
668 669 1
668 708 4
669 670 1
669 709 5
670 671 5
670 710 2
671 672 2
671 711 2
672 673 3
672 712 2
673 674 5
673 713 2
674 675 5
674 714 3
675 676 5
675 715 2
676 677 4
676 716 2
677 678 2
677 717 2
678 679 5
678 718 4
679 680 3
679 719 5
680 720 2
681 682 3
681 721 2
682 683 5
682 722 1
683 684 3
683 723 5
684 685 5
684 724 4
685 686 3
685 725 3
686 687 3
686 726 1
687 688 5
687 727 2
688 689 4
688 728 5
689 690 1
689 729 3
690 691 1
690 730 2
691 692 3
691 731 2
692 693 5
692 732 4
693 694 5
693 733 4
694 695 5
694 734 5
695 696 4
695 735 5
696 697 4
696 736 1
697 698 4
697 737 3
698 699 3
698 738 3
699 700 1
699 739 3
700 701 4
700 740 5
701 702 5
701 741 3
702 703 4
702 742 5
703 704 3
703 743 2
704 705 4
704 744 1
705 706 2
705 745 5
706 707 5
706 746 2
707 708 1
707 747 5
708 709 2
708 748 2
709 710 1
709 749 2
710 711 4
710 750 4
711 712 2
711 751 5
712 713 1
712 752 1
713 714 2
713 753 5
714 715 2
714 754 4
715 716 1
715 755 3
716 717 3
716 756 2
717 718 5
717 757 5
718 719 2
718 758 4
719 720 1
719 759 5
720 760 4
721 722 1
721 761 3
722 723 5
722 762 1
723 724 1
723 763 5
724 725 5
724 764 4
725 726 3
725 765 1
726 727 5
726 766 2
727 728 1
727 767 3
728 729 5
728 768 1
729 730 4
729 769 1
730 731 4
730 770 5
731 732 2
731 771 4
732 733 2
732 772 4
733 734 2
733 773 5
734 735 5
734 774 3
735 736 4
735 775 4
736 737 1
736 776 4
737 738 5
737 777 2
738 739 2
738 778 5
739 740 4
739 779 5
740 741 3
740 780 3
741 742 4
741 781 4
742 743 5
742 782 2
743 744 5
743 783 4
744 745 3
744 784 2
745 746 3
745 785 5
746 747 3
746 786 5
747 748 1
747 787 4
748 749 4
748 788 2
749 750 2
749 789 3
750 751 2
750 790 2
751 752 5
751 791 2
752 753 4
752 792 1
753 754 1
753 793 3
754 755 3
754 794 4
755 756 2
755 795 3
756 757 1
756 796 5
757 758 1
757 797 3
758 759 4
758 798 4
759 760 2
759 799 1
760 800 5
761 762 1
761 801 5
762 763 4
762 802 2
763 764 4
763 803 5
764 765 3
764 804 3
765 766 3
765 805 1
766 767 2
766 806 3
767 768 2
767 807 3
768 769 1
768 808 3
769 770 3
769 809 2
770 771 2
770 810 1
771 772 2
771 811 5
772 773 1
772 812 3
773 774 2
773 813 5
774 775 4
774 814 4
775 776 4
775 815 5
776 777 1
776 816 4
777 778 1
777 817 3
778 779 1
778 818 4
779 780 5
779 819 4
780 781 4
780 820 5
781 782 2
781 821 1
782 783 5
782 822 1
783 784 5
783 823 2
784 785 5
784 824 4
785 786 2
785 825 4
786 787 5
786 826 1
787 788 3
787 827 4
788 789 3
788 828 3
789 790 2
789 829 4
790 791 1
790 830 2
791 792 4
791 831 5
792 793 2
792 832 4
793 794 4
793 833 5
794 795 2
794 834 4
795 796 2
795 835 3
796 797 2
796 836 3
797 798 1
797 837 4
798 799 5
798 838 1
799 800 2
799 839 3
800 840 4
801 802 2
801 841 3
802 803 5
802 842 3
803 804 4
803 843 1
804 805 1
804 844 5
805 806 3
805 845 4
806 807 1
806 846 5
807 808 4
807 847 1
808 809 2
808 848 1
809 810 2
809 849 4
810 811 4
810 850 4
811 812 5
811 851 4
812 813 2
812 852 4
813 814 5
813 853 4
814 815 1
814 854 2
815 816 4
815 855 1
816 817 4
816 856 4
817 818 5
817 857 3
818 819 2
818 858 5
819 820 3
819 859 1
820 821 3
820 860 3
821 822 1
821 861 1
822 823 2
822 862 1
823 824 2
823 863 1
824 825 2
824 864 2
825 826 3
825 865 4
826 827 4
826 866 3
827 828 4
827 867 4
828 829 1
828 868 3
829 830 5
829 869 4
830 831 5
830 870 5
831 832 4
831 871 1
832 833 1
832 872 2
833 834 5
833 873 2
834 835 2
834 874 1
835 836 5
835 875 4
836 837 5
836 876 1
837 838 3
837 877 2
838 839 2
838 878 1
839 840 2
839 879 4
840 880 4
841 842 3
841 881 4
842 843 3
842 882 5
843 844 5
843 883 3
844 845 2
844 884 2
845 846 2
845 885 1
846 847 1
846 886 5
847 848 5
847 887 5
848 849 2
848 888 2
849 850 5
849 889 1
850 851 5
850 890 4
851 852 2
851 891 3
852 853 4
852 892 2
853 854 2
853 893 1
854 855 3
854 894 4
855 856 5
855 895 3
856 857 3
856 896 3
857 858 2
857 897 4
858 859 4
858 898 4
859 860 4
859 899 3
860 861 5
860 900 3
861 862 5
861 901 1
862 863 3
862 902 1
863 864 5
863 903 3
864 865 2
864 904 2
865 866 3
865 905 4
866 867 2
866 906 2
867 868 4
867 907 5
868 869 3
868 908 1
869 870 5
869 909 3
870 871 3
870 910 4
871 872 3
871 911 4
872 873 1
872 912 4
873 874 2
873 913 3
874 875 1
874 914 5
875 876 3
875 915 5
876 877 5
876 916 1
877 878 1
877 917 3
878 879 1
878 918 4
879 880 3
879 919 2
880 920 5
881 882 2
881 921 3
882 883 3
882 922 3
883 884 2
883 923 2
884 885 5
884 924 2
885 886 5
885 925 3
886 887 5
886 926 5
887 888 4
887 927 2
888 889 2
888 928 1
889 890 2
889 929 2
890 891 5
890 930 5
891 892 1
891 931 4
892 893 1
892 932 3
893 894 1
893 933 4
894 895 3
894 934 5
895 896 1
895 935 4
896 897 2
896 936 1
897 898 3
897 937 1
898 899 5
898 938 2
899 900 3
899 939 2
900 901 3
900 940 4
901 902 3
901 941 4
902 903 5
902 942 1
903 904 5
903 943 3
904 905 5
904 944 3
905 906 5
905 945 3
906 907 4
906 946 3
907 908 3
907 947 5
908 909 4
908 948 1
909 910 1
909 949 2
910 911 4
910 950 4
911 912 1
911 951 5
912 913 4
912 952 2
913 914 3
913 953 5
914 915 3
914 954 4
915 916 3
915 955 2
916 917 2
916 956 5
917 918 4
917 957 5
918 919 2
918 958 4
919 920 1
919 959 1
920 960 2
921 922 5
921 961 1
922 923 1
922 962 5
923 924 4
923 963 4
924 925 1
924 964 3
925 926 1
925 965 4
926 927 2
926 966 4
927 928 2
927 967 3
928 929 2
928 968 2
929 930 3
929 969 1
930 931 3
930 970 2
931 932 2
931 971 2
932 933 5
932 972 1
933 934 1
933 973 1
934 935 3
934 974 4
935 936 5
935 975 1
936 937 4
936 976 4
937 938 3
937 977 2
938 939 2
938 978 4
939 940 5
939 979 1
940 941 1
940 980 5
941 942 1
941 981 4
942 943 1
942 982 1
943 944 5
943 983 3
944 945 3
944 984 1
945 946 1
945 985 4
946 947 2
946 986 2
947 948 5
947 987 1
948 949 4
948 988 2
949 950 3
949 989 5
950 951 3
950 990 3
951 952 4
951 991 3
952 953 1
952 992 2
953 954 2
953 993 1
954 955 3
954 994 2
955 956 3
955 995 1
956 957 2
956 996 1
957 958 1
957 997 2
958 959 1
958 998 2
959 960 3
959 999 4
960 1000 4
961 962 5
961 1001 1
962 963 5
962 1002 3
963 964 1
963 1003 2
964 965 3
964 1004 4
965 966 5
965 1005 2
966 967 3
966 1006 2
967 968 4
967 1007 1
968 969 3
968 1008 1
969 970 3
969 1009 2
970 971 4
970 1010 1
971 972 2
971 1011 1
972 973 3
972 1012 5
973 974 1
973 1013 5
974 975 4
974 1014 1
975 976 2
975 1015 1
976 977 3
976 1016 5
977 978 4
977 1017 3
978 979 1
978 1018 5
979 980 1
979 1019 1
980 981 3
980 1020 2
981 982 5
981 1021 1
982 983 5
982 1022 4
983 984 1
983 1023 5
984 985 3
984 1024 1
985 986 4
985 1025 2
986 987 5
986 1026 1
987 988 5
987 1027 3
988 989 4
988 1028 1
989 990 2
989 1029 2
990 991 4
990 1030 2
991 992 4
991 1031 5
992 993 1
992 1032 3
993 994 4
993 1033 2
994 995 5
994 1034 5
995 996 5
995 1035 1
996 997 3
996 1036 4
997 998 4
997 1037 4
998 999 3
998 1038 4
999 1000 3
999 1039 5
1000 1040 2
1001 1002 4
1001 1041 2
1002 1003 5
1002 1042 5
1003 1004 1
1003 1043 4
1004 1005 4
1004 1044 5
1005 1006 4
1005 1045 5
1006 1007 5
1006 1046 3
1007 1008 5
1007 1047 5
1008 1009 4
1008 1048 4
1009 1010 3
1009 1049 1
1010 1011 5
1010 1050 3
1011 1012 2
1011 1051 1
1012 1013 4
1012 1052 3
1013 1014 3
1013 1053 4
1014 1015 1
1014 1054 4
1015 1016 2
1015 1055 3
1016 1017 1
1016 1056 2
1017 1018 2
1017 1057 1
1018 1019 3
1018 1058 4
1019 1020 3
1019 1059 1
1020 1021 1
1020 1060 4
1021 1022 2
1021 1061 1
1022 1023 3
1022 1062 5
1023 1024 5
1023 1063 1
1024 1025 3
1024 1064 1
1025 1026 3
1025 1065 4
1026 1027 5
1026 1066 3
1027 1028 1
1027 1067 5
1028 1029 1
1028 1068 1
1029 1030 3
1029 1069 2
1030 1031 2
1030 1070 4
1031 1032 5
1031 1071 5
1032 1033 4
1032 1072 1
1033 1034 2
1033 1073 4
1034 1035 1
1034 1074 5
1035 1036 4
1035 1075 3
1036 1037 5
1036 1076 2
1037 1038 5
1037 1077 2
1038 1039 2
1038 1078 3
1039 1040 3
1039 1079 2
1040 1080 1
1041 1042 2
1041 1081 5
1042 1043 2
1042 1082 5
1043 1044 4
1043 1083 1
1044 1045 2
1044 1084 1
1045 1046 2
1045 1085 3
1046 1047 3
1046 1086 1
1047 1048 2
1047 1087 3
1048 1049 1
1048 1088 1
1049 1050 5
1049 1089 4
1050 1051 2
1050 1090 4
1051 1052 5
1051 1091 5
1052 1053 5
1052 1092 3
1053 1054 1
1053 1093 2
1054 1055 1
1054 1094 2
1055 1056 5
1055 1095 3
1056 1057 3
1056 1096 2
1057 1058 4
1057 1097 1
1058 1059 5
1058 1098 1
1059 1060 5
1059 1099 3
1060 1061 5
1060 1100 2
1061 1062 1
1061 1101 4
1062 1063 1
1062 1102 1
1063 1064 3
1063 1103 2
1064 1065 2
1064 1104 2
1065 1066 5
1065 1105 4
1066 1067 5
1066 1106 3
1067 1068 5
1067 1107 5
1068 1069 5
1068 1108 3
1069 1070 2
1069 1109 5
1070 1071 4
1070 1110 3
1071 1072 5
1071 1111 3
1072 1073 4
1072 1112 3
1073 1074 5
1073 1113 3
1074 1075 1
1074 1114 2
1075 1076 3
1075 1115 1
1076 1077 5
1076 1116 3
1077 1078 3
1077 1117 3
1078 1079 2
1078 1118 5
1079 1080 1
1079 1119 2
1080 1120 3
1081 1082 4
1081 1121 4
1082 1083 2
1082 1122 2
1083 1084 4
1083 1123 3
1084 1085 1
1084 1124 3
1085 1086 1
1085 1125 4
1086 1087 1
1086 1126 3
1087 1088 2
1087 1127 3
1088 1089 1
1088 1128 2
1089 1090 4
1089 1129 5
1090 1091 5
1090 1130 1
1091 1092 3
1091 1131 5
1092 1093 3
1092 1132 1
1093 1094 2
1093 1133 1
1094 1095 4
1094 1134 5
1095 1096 3
1095 1135 5
1096 1097 4
1096 1136 2
1097 1098 5
1097 1137 2
1098 1099 5
1098 1138 5
1099 1100 3
1099 1139 3
1100 1101 5
1100 1140 3
1101 1102 3
1101 1141 3
1102 1103 4
1102 1142 4
1103 1104 4
1103 1143 3
1104 1105 1
1104 1144 1
1105 1106 2
1105 1145 1
1106 1107 4
1106 1146 3
1107 1108 2
1107 1147 3
1108 1109 1
1108 1148 4
1109 1110 3
1109 1149 2
1110 1111 4
1110 1150 4
1111 1112 4
1111 1151 1
1112 1113 5
1112 1152 4
1113 1114 5
1113 1153 4
1114 1115 5
1114 1154 3
1115 1116 2
1115 1155 5
1116 1117 1
1116 1156 2
1117 1118 3
1117 1157 5
1118 1119 2
1118 1158 5
1119 1120 1
1119 1159 3
1120 1160 3
1121 1122 3
1121 1161 3
1122 1123 4
1122 1162 2
1123 1124 4
1123 1163 1
1124 1125 3
1124 1164 3
1125 1126 3
1125 1165 4
1126 1127 4
1126 1166 3
1127 1128 1
1127 1167 3
1128 1129 4
1128 1168 5
1129 1130 1
1129 1169 1
1130 1131 5
1130 1170 1
1131 1132 1
1131 1171 4
1132 1133 1
1132 1172 1
1133 1134 4
1133 1173 1
1134 1135 4
1134 1174 1
1135 1136 4
1135 1175 1
1136 1137 2
1136 1176 1
1137 1138 1
1137 1177 1
1138 1139 1
1138 1178 2
1139 1140 4
1139 1179 4
1140 1141 3
1140 1180 5
1141 1142 1
1141 1181 5
1142 1143 5
1142 1182 4
1143 1144 1
1143 1183 2
1144 1145 1
1144 1184 3
1145 1146 3
1145 1185 1
1146 1147 2
1146 1186 2
1147 1148 2
1147 1187 2
1148 1149 4
1148 1188 3
1149 1150 4
1149 1189 3
1150 1151 3
1150 1190 3
1151 1152 1
1151 1191 1
1152 1153 1
1152 1192 1
1153 1154 4
1153 1193 4
1154 1155 5
1154 1194 4
1155 1156 5
1155 1195 4
1156 1157 1
1156 1196 2
1157 1158 5
1157 1197 4
1158 1159 4
1158 1198 5
1159 1160 3
1159 1199 2
1160 1200 2
1161 1162 2
1161 1201 3
1162 1163 3
1162 1202 3
1163 1164 1
1163 1203 2
1164 1165 3
1164 1204 3
1165 1166 4
1165 1205 4
1166 1167 3
1166 1206 2
1167 1168 1
1167 1207 1
1168 1169 1
1168 1208 3
1169 1170 5
1169 1209 5
1170 1171 5
1170 1210 1
1171 1172 3
1171 1211 2
1172 1173 4
1172 1212 2
1173 1174 2
1173 1213 3
1174 1175 5
1174 1214 3
1175 1176 1
1175 1215 2
1176 1177 4
1176 1216 4
1177 1178 4
1177 1217 4
1178 1179 5
1178 1218 3
1179 1180 3
1179 1219 5
1180 1181 2
1180 1220 3
1181 1182 1
1181 1221 1
1182 1183 4
1182 1222 4
1183 1184 5
1183 1223 5
1184 1185 2
1184 1224 1
1185 1186 2
1185 1225 3
1186 1187 3
1186 1226 4
1187 1188 5
1187 1227 1
1188 1189 2
1188 1228 4
1189 1190 5
1189 1229 2
1190 1191 1
1190 1230 2
1191 1192 1
1191 1231 2
1192 1193 1
1192 1232 2
1193 1194 1
1193 1233 3
1194 1195 1
1194 1234 5
1195 1196 5
1195 1235 2
1196 1197 2
1196 1236 4
1197 1198 2
1197 1237 1
1198 1199 2
1198 1238 2
1199 1200 3
1199 1239 3
1200 1240 5
1201 1202 2
1201 1241 2
1202 1203 1
1202 1242 4
1203 1204 2
1203 1243 2
1204 1205 2
1204 1244 1
1205 1206 4
1205 1245 1
1206 1207 2
1206 1246 1
1207 1208 3
1207 1247 4
1208 1209 2
1208 1248 5
1209 1210 5
1209 1249 5
1210 1211 3
1210 1250 4
1211 1212 1
1211 1251 4
1212 1213 2
1212 1252 4
1213 1214 2
1213 1253 2
1214 1215 5
1214 1254 3
1215 1216 4
1215 1255 2
1216 1217 2
1216 1256 1
1217 1218 5
1217 1257 4
1218 1219 5
1218 1258 4
1219 1220 3
1219 1259 5
1220 1221 3
1220 1260 1
1221 1222 1
1221 1261 4
1222 1223 4
1222 1262 2
1223 1224 5
1223 1263 2
1224 1225 2
1224 1264 5
1225 1226 1
1225 1265 1
1226 1227 4
1226 1266 3
1227 1228 5
1227 1267 1
1228 1229 2
1228 1268 1
1229 1230 2
1229 1269 1
1230 1231 1
1230 1270 5
1231 1232 4
1231 1271 5
1232 1233 5
1232 1272 3
1233 1234 5
1233 1273 3
1234 1235 5
1234 1274 5
1235 1236 4
1235 1275 1
1236 1237 1
1236 1276 5
1237 1238 2
1237 1277 2
1238 1239 4
1238 1278 4
1239 1240 1
1239 1279 5
1240 1280 5
1241 1242 1
1241 1281 3
1242 1243 2
1242 1282 5
1243 1244 1
1243 1283 2
1244 1245 1
1244 1284 4
1245 1246 1
1245 1285 2
1246 1247 1
1246 1286 2
1247 1248 1
1247 1287 5
1248 1249 2
1248 1288 3
1249 1250 4
1249 1289 4
1250 1251 2
1250 1290 2
1251 1252 1
1251 1291 4
1252 1253 4
1252 1292 3
1253 1254 4
1253 1293 4
1254 1255 4
1254 1294 1
1255 1256 4
1255 1295 4
1256 1257 5
1256 1296 4
1257 1258 4
1257 1297 4
1258 1259 3
1258 1298 4
1259 1260 3
1259 1299 1
1260 1261 1
1260 1300 5
1261 1262 5
1261 1301 2
1262 1263 5
1262 1302 4
1263 1264 5
1263 1303 4
1264 1265 1
1264 1304 2
1265 1266 3
1265 1305 1
1266 1267 5
1266 1306 2
1267 1268 4
1267 1307 4
1268 1269 1
1268 1308 1
1269 1270 4
1269 1309 1
1270 1271 2
1270 1310 3
1271 1272 3
1271 1311 1
1272 1273 4
1272 1312 2
1273 1274 3
1273 1313 1
1274 1275 5
1274 1314 3
1275 1276 5
1275 1315 5
1276 1277 5
1276 1316 2
1277 1278 2
1277 1317 2
1278 1279 2
1278 1318 1
1279 1280 4
1279 1319 5
1280 1320 2
1281 1282 2
1281 1321 2
1282 1283 4
1282 1322 2
1283 1284 1
1283 1323 2
1284 1285 3
1284 1324 3
1285 1286 4
1285 1325 4
1286 1287 1
1286 1326 1
1287 1288 4
1287 1327 2
1288 1289 3
1288 1328 4
1289 1290 2
1289 1329 2
1290 1291 3
1290 1330 3
1291 1292 4
1291 1331 2
1292 1293 5
1292 1332 1
1293 1294 4
1293 1333 1
1294 1295 5
1294 1334 4
1295 1296 5
1295 1335 1
1296 1297 1
1296 1336 1
1297 1298 3
1297 1337 4
1298 1299 4
1298 1338 3
1299 1300 2
1299 1339 1
1300 1301 2
1300 1340 4
1301 1302 3
1301 1341 2
1302 1303 2
1302 1342 3
1303 1304 2
1303 1343 2
1304 1305 3
1304 1344 3
1305 1306 1
1305 1345 1
1306 1307 1
1306 1346 3
1307 1308 3
1307 1347 4
1308 1309 5
1308 1348 1
1309 1310 5
1309 1349 3
1310 1311 5
1310 1350 2
1311 1312 5
1311 1351 3
1312 1313 1
1312 1352 1
1313 1314 4
1313 1353 5
1314 1315 3
1314 1354 3
1315 1316 3
1315 1355 2
1316 1317 4
1316 1356 3
1317 1318 2
1317 1357 5
1318 1319 2
1318 1358 3
1319 1320 2
1319 1359 4
1320 1360 4
1321 1322 1
1321 1361 3
1322 1323 2
1322 1362 4
1323 1324 2
1323 1363 2
1324 1325 1
1324 1364 1
1325 1326 3
1325 1365 2
1326 1327 2
1326 1366 2
1327 1328 3
1327 1367 5
1328 1329 1
1328 1368 3
1329 1330 2
1329 1369 5
1330 1331 4
1330 1370 1
1331 1332 4
1331 1371 1
1332 1333 4
1332 1372 4
1333 1334 3
1333 1373 4
1334 1335 4
1334 1374 1
1335 1336 4
1335 1375 3
1336 1337 2
1336 1376 1
1337 1338 1
1337 1377 4
1338 1339 4
1338 1378 1
1339 1340 4
1339 1379 4
1340 1341 2
1340 1380 1
1341 1342 1
1341 1381 2
1342 1343 3
1342 1382 5
1343 1344 5
1343 1383 4
1344 1345 4
1344 1384 4
1345 1346 3
1345 1385 1
1346 1347 5
1346 1386 5
1347 1348 4
1347 1387 3
1348 1349 4
1348 1388 2
1349 1350 2
1349 1389 4
1350 1351 1
1350 1390 1
1351 1352 2
1351 1391 1
1352 1353 4
1352 1392 4
1353 1354 3
1353 1393 3
1354 1355 2
1354 1394 4
1355 1356 2
1355 1395 1
1356 1357 3
1356 1396 1
1357 1358 2
1357 1397 2
1358 1359 5
1358 1398 5
1359 1360 3
1359 1399 5
1360 1400 4
1361 1362 4
1361 1401 4
1362 1363 2
1362 1402 5
1363 1364 2
1363 1403 5
1364 1365 3
1364 1404 2
1365 1366 1
1365 1405 1
1366 1367 1
1366 1406 1
1367 1368 4
1367 1407 1
1368 1369 1
1368 1408 5
1369 1370 1
1369 1409 1
1370 1371 3
1370 1410 5
1371 1372 1
1371 1411 3
1372 1373 1
1372 1412 5
1373 1374 1
1373 1413 4
1374 1375 1
1374 1414 1
1375 1376 4
1375 1415 1
1376 1377 2
1376 1416 4
1377 1378 4
1377 1417 4
1378 1379 2
1378 1418 5
1379 1380 5
1379 1419 3
1380 1381 5
1380 1420 5
1381 1382 3
1381 1421 3
1382 1383 3
1382 1422 1
1383 1384 5
1383 1423 1
1384 1385 2
1384 1424 4
1385 1386 5
1385 1425 4
1386 1387 5
1386 1426 4
1387 1388 5
1387 1427 3
1388 1389 5
1388 1428 5
1389 1390 3
1389 1429 4
1390 1391 5
1390 1430 1
1391 1392 5
1391 1431 1
1392 1393 2
1392 1432 4
1393 1394 2
1393 1433 2
1394 1395 3
1394 1434 2
1395 1396 2
1395 1435 4
1396 1397 2
1396 1436 4
1397 1398 4
1397 1437 3
1398 1399 1
1398 1438 2
1399 1400 1
1399 1439 1
1400 1440 5
1401 1402 1
1401 1441 5
1402 1403 5
1402 1442 5
1403 1404 4
1403 1443 2
1404 1405 5
1404 1444 1
1405 1406 2
1405 1445 4
1406 1407 1
1406 1446 4
1407 1408 1
1407 1447 3
1408 1409 4
1408 1448 3
1409 1410 2
1409 1449 3
1410 1411 1
1410 1450 5
1411 1412 4
1411 1451 1
1412 1413 3
1412 1452 4
1413 1414 5
1413 1453 2
1414 1415 3
1414 1454 4
1415 1416 1
1415 1455 3
1416 1417 2
1416 1456 2
1417 1418 5
1417 1457 2
1418 1419 4
1418 1458 1
1419 1420 4
1419 1459 4
1420 1421 3
1420 1460 4
1421 1422 3
1421 1461 3
1422 1423 4
1422 1462 1
1423 1424 4
1423 1463 3
1424 1425 2
1424 1464 2
1425 1426 1
1425 1465 3
1426 1427 5
1426 1466 1
1427 1428 3
1427 1467 1
1428 1429 2
1428 1468 5
1429 1430 3
1429 1469 1
1430 1431 3
1430 1470 4
1431 1432 4
1431 1471 1
1432 1433 1
1432 1472 2
1433 1434 1
1433 1473 2
1434 1435 3
1434 1474 2
1435 1436 4
1435 1475 5
1436 1437 1
1436 1476 1
1437 1438 2
1437 1477 5
1438 1439 1
1438 1478 4
1439 1440 3
1439 1479 3
1440 1480 5
1441 1442 5
1441 1481 1
1442 1443 1
1442 1482 5
1443 1444 2
1443 1483 2
1444 1445 5
1444 1484 1
1445 1446 4
1445 1485 4
1446 1447 5
1446 1486 1
1447 1448 4
1447 1487 1
1448 1449 1
1448 1488 2
1449 1450 5
1449 1489 3
1450 1451 4
1450 1490 1
1451 1452 5
1451 1491 1
1452 1453 1
1452 1492 3
1453 1454 1
1453 1493 4
1454 1455 3
1454 1494 2
1455 1456 5
1455 1495 1
1456 1457 1
1456 1496 3
1457 1458 1
1457 1497 5
1458 1459 4
1458 1498 3
1459 1460 3
1459 1499 4
1460 1461 1
1460 1500 3
1461 1462 5
1461 1501 4
1462 1463 2
1462 1502 5
1463 1464 4
1463 1503 2
1464 1465 2
1464 1504 1
1465 1466 2
1465 1505 3
1466 1467 4
1466 1506 5
1467 1468 3
1467 1507 4
1468 1469 3
1468 1508 2
1469 1470 1
1469 1509 1
1470 1471 4
1470 1510 2
1471 1472 4
1471 1511 1
1472 1473 2
1472 1512 2
1473 1474 2
1473 1513 4
1474 1475 5
1474 1514 5
1475 1476 1
1475 1515 5
1476 1477 4
1476 1516 2
1477 1478 1
1477 1517 1
1478 1479 2
1478 1518 4
1479 1480 5
1479 1519 4
1480 1520 3
1481 1482 3
1481 1521 1
1482 1483 5
1482 1522 3
1483 1484 5
1483 1523 3
1484 1485 1
1484 1524 5
1485 1486 1
1485 1525 4
1486 1487 3
1486 1526 2
1487 1488 4
1487 1527 2
1488 1489 4
1488 1528 1
1489 1490 4
1489 1529 4
1490 1491 4
1490 1530 3
1491 1492 2
1491 1531 4
1492 1493 1
1492 1532 5
1493 1494 1
1493 1533 2
1494 1495 4
1494 1534 5
1495 1496 1
1495 1535 4
1496 1497 5
1496 1536 1
1497 1498 3
1497 1537 2
1498 1499 2
1498 1538 3
1499 1500 3
1499 1539 4
1500 1501 3
1500 1540 5
1501 1502 3
1501 1541 3
1502 1503 2
1502 1542 4
1503 1504 2
1503 1543 2
1504 1505 2
1504 1544 5
1505 1506 2
1505 1545 3
1506 1507 1
1506 1546 1
1507 1508 5
1507 1547 5
1508 1509 2
1508 1548 1
1509 1510 4
1509 1549 5
1510 1511 4
1510 1550 5
1511 1512 5
1511 1551 2
1512 1513 3
1512 1552 2
1513 1514 2
1513 1553 4
1514 1515 5
1514 1554 1
1515 1516 4
1515 1555 2
1516 1517 1
1516 1556 3
1517 1518 2
1517 1557 3
1518 1519 4
1518 1558 2
1519 1520 4
1519 1559 4
1520 1560 2
1521 1522 1
1521 1561 2
1522 1523 3
1522 1562 3
1523 1524 2
1523 1563 1
1524 1525 5
1524 1564 1
1525 1526 4
1525 1565 1
1526 1527 2
1526 1566 2
1527 1528 4
1527 1567 5
1528 1529 3
1528 1568 2
1529 1530 1
1529 1569 2
1530 1531 4
1530 1570 5
1531 1532 2
1531 1571 2
1532 1533 3
1532 1572 5
1533 1534 1
1533 1573 5
1534 1535 1
1534 1574 3
1535 1536 3
1535 1575 5
1536 1537 5
1536 1576 5
1537 1538 3
1537 1577 4
1538 1539 2
1538 1578 2
1539 1540 2
1539 1579 5
1540 1541 3
1540 1580 4
1541 1542 5
1541 1581 2
1542 1543 4
1542 1582 2
1543 1544 1
1543 1583 3
1544 1545 2
1544 1584 4
1545 1546 1
1545 1585 2
1546 1547 2
1546 1586 2
1547 1548 5
1547 1587 5
1548 1549 3
1548 1588 2
1549 1550 2
1549 1589 1
1550 1551 4
1550 1590 4
1551 1552 2
1551 1591 4
1552 1553 2
1552 1592 5
1553 1554 4
1553 1593 2
1554 1555 2
1554 1594 5
1555 1556 4
1555 1595 2
1556 1557 5
1556 1596 4
1557 1558 2
1557 1597 1
1558 1559 3
1558 1598 1
1559 1560 3
1559 1599 5
1560 1600 4
1561 1562 3
1562 1563 5
1563 1564 1
1564 1565 2
1565 1566 3
1566 1567 1
1567 1568 1
1568 1569 1
1569 1570 5
1570 1571 2
1571 1572 1
1572 1573 1
1573 1574 3
1574 1575 4
1575 1576 5
1576 1577 4
1577 1578 2
1578 1579 1
1579 1580 3
1580 1581 3
1581 1582 1
1582 1583 1
1583 1584 3
1584 1585 4
1585 1586 5
1586 1587 5
1587 1588 3
1588 1589 3
1589 1590 1
1590 1591 3
1591 1592 2
1592 1593 1
1593 1594 1
1594 1595 2
1595 1596 5
1596 1597 5
1597 1598 1
1598 1599 5
1599 1600 1
1 1561 2
2 1562 3
3 1563 1
4 1564 2
5 1565 1
6 1566 4
7 1567 2
8 1568 2
9 1569 3
10 1570 3
11 1571 1
12 1572 4
13 1573 2
14 1574 2
15 1575 3
16 1576 2
17 1577 1
18 1578 2
19 1579 5
20 1580 5
21 1581 1
22 1582 3
23 1583 3
24 1584 4
25 1585 4
26 1586 1
27 1587 3
28 1588 3
29 1589 3
30 1590 4
31 1591 1
32 1592 2
33 1593 5
34 1594 4
35 1595 1
36 1596 1
37 1597 1
38 1598 4
39 1599 3
40 1600 3
1 40 5
41 80 1
81 120 3
121 160 1
161 200 5
201 240 2
241 280 5
281 320 3
321 360 1
361 400 1
401 440 3
441 480 1
481 520 3
521 560 2
561 600 4
601 640 4
641 680 4
681 720 5
721 760 5
761 800 5
801 840 2
841 880 5
881 920 4
921 960 3
961 1000 1
1001 1040 4
1041 1080 3
1081 1120 2
1121 1160 4
1161 1200 4
1201 1240 5
1241 1280 4
1281 1320 5
1321 1360 3
1361 1400 3
1401 1440 1
1441 1480 1
1481 1520 5
1521 1560 2
1561 1600 5
